PARAMETER_FILE = even/even_uncomplete_graph_new/de/par/random186.par
PROBLEM_FILE = even/even_uncomplete_graph_new/de/mat/random186.tsp
Successes/Runs = 0/10
Cost.min = 1042, Cost.avg = 1042.00, Cost.max = 1042
Gap.min = 0.0000%, Gap.avg = 0.0000%, Gap.max = 0.0000%
Trials.min = 1000, Trials.avg = 1000.0, Trials.max = 1000
Time.min = 0.25 sec., Time.avg = 0.28 sec., Time.max = 0.34 sec.
Time.total = 2.98 sec.
